100
100
3000 3000 3000 3000 3000 3000 3000 3000 3000 3000 3000 3000 3000 3000 3000 3000 3000 3000 3000 3000 3000 3000 3000 3000 3000 3000 3000 3000 3000 3000 3000 3000 3000 3000 3000 3000 3000 3000 3000 3000 3000 3000 3000 3000 3000 3000 3000 3000 3000 3000 3000 3000 3000 3000 3000 3000 3000 3000 3000 3000 3000 3000 3000 3000 3000 3000 3000 3000 3000 3000 3000 3000 3000 3000 3000 3000 3000 3000 3000 3000 3000 3000 3000 3000 3000 3000 3000 3000 3000 3000 3000 3000 3000 3000 3000 3000 3000 3000 3000 3000
0 5 3
0 42 2
0 51 0
0 56 2
0 61 2
0 75 1
0 77 0
0 80 0
0 91 0
0 93 1
1 12 1
1 24 4
1 28 1
1 42 0
1 60 0
1 69 2
1 76 3
1 90 3
1 97 2
2 4 2
2 21 0
2 28 1
2 32 2
2 45 1
2 61 0
2 62 2
2 71 0
2 72 2
2 87 0
2 95 4
3 1 3
3 10 0
3 11 3
3 18 3
3 45 4
3 47 2
3 54 4
3 55 3
3 68 0
3 82 0
3 83 0
3 99 0
4 2 1
4 23 2
4 26 1
4 39 3
4 73 1
4 88 4
5 0 1
5 10 1
5 24 0
5 25 3
5 54 0
5 57 0
5 66 0
5 74 1
6 17 3
6 21 0
6 25 0
6 33 1
6 59 0
6 61 1
6 69 0
6 72 0
6 77 1
6 81 0
6 93 4
7 0 2
7 2 4
7 5 2
7 16 1
7 61 3
7 91 2
8 3 2
8 13 4
8 18 1
8 43 0
8 49 2
8 53 4
8 68 3
8 97 2
9 12 2
9 35 1
9 39 4
9 58 3
9 78 1
9 80 2
9 81 3
9 85 4
9 94 2
10 8 3
10 27 0
10 31 1
10 33 3
10 40 3
10 52 4
10 55 4
10 87 4
11 5 3
11 24 4
11 47 2
11 51 2
11 62 4
11 76 2
11 77 2
11 80 3
11 81 3
12 3 3
12 6 1
12 10 0
12 20 0
12 23 2
12 29 2
12 38 0
12 41 2
12 44 1
12 46 3
12 66 3
12 69 1
12 90 2
12 93 1
13 3 3
13 9 2
13 26 0
13 55 4
13 56 2
13 58 2
13 88 2
13 89 3
13 95 1
13 98 1
14 2 3
14 10 3
14 18 3
14 21 3
14 26 0
14 63 0
14 74 3
14 76 2
14 95 4
15 13 0
15 19 2
15 29 0
15 33 0
15 72 2
15 85 1
15 86 4
16 9 4
16 10 0
16 19 4
16 24 1
16 45 1
16 50 1
16 62 2
16 65 4
16 69 2
16 90 1
16 96 3
17 1 1
17 6 0
17 13 4
17 14 1
17 48 1
17 55 1
17 60 2
17 70 3
17 83 4
18 13 0
18 14 4
18 25 4
18 26 4
18 32 2
18 44 2
18 69 4
18 83 4
18 84 3
18 95 4
19 1 2
19 3 0
19 12 3
19 15 2
19 27 1
19 37 1
19 42 4
19 76 0
19 82 1
19 84 2
20 10 0
20 13 1
20 23 3
20 29 4
20 30 4
20 35 1
20 36 1
20 50 4
20 68 2
20 75 0
20 79 3
20 90 2
21 4 2
21 5 3
21 11 2
21 19 3
21 20 4
21 21 0
21 34 4
21 70 1
21 76 3
21 91 1
22 21 2
22 25 2
22 26 0
22 33 4
22 41 0
22 43 1
22 52 3
22 57 2
22 60 3
22 63 1
22 67 0
22 95 3
22 98 1
23 0 2
23 1 0
23 19 0
23 21 2
23 23 3
23 26 1
23 32 4
23 43 3
23 47 1
23 64 1
23 75 2
23 82 1
23 93 1
23 94 0
24 4 3
24 7 4
24 15 3
24 23 0
24 28 3
24 53 2
24 54 2
24 74 3
24 87 1
25 4 4
25 5 4
25 11 4
25 27 1
25 40 0
25 65 0
25 76 0
25 82 2
25 86 3
25 94 1
25 96 4
26 5 4
26 9 0
26 30 0
26 38 1
26 54 3
26 61 0
26 68 0
26 94 1
26 98 2
27 17 2
27 22 0
27 38 2
27 40 3
27 55 1
27 70 0
28 7 1
28 16 0
28 23 1
28 27 1
28 53 1
28 55 3
28 61 0
28 66 4
28 92 0
28 94 3
28 99 2
29 8 4
29 13 0
29 16 2
29 31 3
29 45 1
29 63 1
29 65 3
29 66 2
29 75 3
29 99 4
30 5 3
30 8 0
30 24 4
30 50 4
30 58 1
30 67 0
30 79 0
30 84 0
30 93 3
30 99 3
31 8 3
31 14 3
31 22 0
31 26 1
31 36 0
31 44 3
31 48 4
31 52 0
31 55 4
31 72 1
31 86 2
31 92 2
31 94 0
31 98 2
32 2 1
32 17 1
32 35 0
32 37 0
32 59 2
32 64 0
32 70 1
32 72 1
32 84 4
32 85 2
33 51 2
33 57 4
33 59 1
33 79 1
33 82 1
33 89 3
33 92 3
34 29 0
34 30 0
34 34 4
34 79 1
34 80 1
34 92 2
34 93 4
35 4 3
35 11 0
35 29 2
35 41 2
35 47 3
35 52 1
35 57 2
35 64 0
35 66 1
35 75 3
35 83 4
35 97 2
36 0 3
36 14 4
36 18 2
36 21 4
36 27 0
36 31 0
36 37 3
36 64 1
37 3 3
37 4 3
37 15 2
37 19 3
37 21 1
37 26 1
37 31 1
37 34 2
37 45 0
37 71 2
37 78 0
37 81 3
37 82 2
37 99 0
38 9 0
38 13 1
38 20 3
38 25 4
38 31 0
38 34 4
38 37 4
38 40 3
38 58 1
38 66 1
38 85 4
38 86 1
38 90 3
39 7 4
39 8 2
39 9 0
39 13 4
39 16 1
39 22 1
39 34 3
39 43 1
39 55 3
39 56 2
39 63 1
39 64 2
39 67 4
39 69 3
39 71 0
39 91 3
39 96 2
39 99 1
40 4 4
40 12 4
40 17 3
40 45 4
40 47 3
40 51 2
40 78 0
40 88 3
40 89 3
40 95 4
41 18 4
41 39 3
41 45 2
41 51 1
41 79 1
41 81 4
41 89 0
41 98 0
42 3 4
42 8 1
42 10 4
42 17 4
42 28 1
42 34 2
42 44 4
42 68 4
42 77 4
42 87 3
42 97 0
43 2 3
43 11 3
43 12 4
43 16 3
43 22 2
43 32 2
43 36 0
43 59 1
43 70 4
43 71 3
43 75 4
43 84 3
43 91 2
44 17 2
44 19 1
44 26 1
44 39 0
44 48 2
44 52 4
44 71 3
44 88 0
44 96 4
45 9 3
45 29 1
45 53 3
45 57 0
45 81 2
45 86 1
46 8 2
46 18 1
46 28 3
46 30 3
46 32 3
46 35 1
46 40 1
46 41 1
46 42 2
46 48 4
46 54 3
46 56 3
46 58 3
46 61 0
46 64 1
46 80 1
46 85 3
46 90 1
46 91 4
47 48 2
47 50 2
47 52 3
47 59 3
47 62 1
47 78 0
47 87 0
47 88 1
47 96 0
48 9 0
48 14 4
48 15 0
48 23 2
48 37 4
48 50 1
48 53 2
48 87 2
49 0 0
49 6 3
49 11 4
49 21 2
49 22 0
49 23 3
49 28 0
49 60 2
49 67 3
49 77 1
49 84 4
49 85 0
49 86 3
49 91 0
49 92 2
49 95 3
50 0 3
50 1 4
50 3 3
50 6 0
50 7 2
50 13 2
50 18 2
50 34 2
50 49 0
50 56 3
50 60 0
50 63 4
50 65 1
50 71 0
50 77 0
50 78 4
50 98 2
51 24 4
51 33 2
51 39 3
51 42 2
51 45 1
51 62 1
51 69 4
51 73 3
51 80 4
51 83 2
51 86 4
52 42 0
52 45 4
52 52 3
52 59 4
52 62 2
53 2 2
53 9 2
53 36 2
53 38 1
53 39 4
53 48 1
53 49 2
53 54 1
53 60 3
53 67 4
53 74 0
53 85 2
53 92 4
54 5 0
54 15 1
54 31 1
54 38 1
54 46 3
54 56 1
54 89 0
54 93 4
54 96 4
55 32 4
55 37 4
55 43 0
55 51 3
55 53 0
55 79 4
55 82 3
56 6 2
56 28 3
56 29 3
56 37 3
56 59 1
56 62 1
56 74 0
56 88 1
56 89 3
56 92 2
56 95 1
57 3 0
57 8 4
57 14 4
57 16 2
57 19 1
57 31 0
57 41 1
57 54 3
57 64 3
57 66 0
57 70 4
57 73 0
57 74 3
57 75 0
57 88 1
57 90 1
57 98 0
58 1 4
58 2 2
58 22 0
58 24 0
58 30 3
58 39 4
58 46 0
58 63 2
58 73 3
58 96 0
59 9 2
59 12 3
59 20 4
59 22 1
59 28 3
59 35 1
59 46 2
59 89 3
59 94 3
59 98 3
60 12 2
60 38 1
60 51 0
60 52 0
60 77 0
60 93 0
61 1 0
61 7 2
61 10 0
61 29 4
61 36 3
61 46 0
61 50 0
61 78 4
61 81 3
61 97 2
61 99 4
62 6 0
62 7 3
62 11 1
62 22 2
62 33 4
62 36 1
62 46 3
62 67 1
62 81 3
62 95 3
62 99 3
63 6 2
63 22 0
63 31 2
63 33 4
63 34 4
63 67 4
63 72 1
64 4 1
64 35 0
64 38 3
64 40 3
64 57 2
64 74 0
65 3 4
65 7 4
65 29 2
65 49 1
65 51 0
65 53 4
65 54 3
65 56 3
65 71 3
65 75 0
65 80 2
65 83 3
65 84 1
65 88 0
66 9 4
66 13 4
66 17 3
66 22 3
66 23 3
66 27 3
66 63 0
66 71 1
66 73 1
66 79 2
66 91 0
66 97 3
67 0 1
67 18 1
67 20 4
67 30 4
67 37 3
67 46 0
67 77 4
67 82 2
67 98 1
68 30 1
68 41 0
68 55 2
68 66 2
68 71 2
68 73 0
68 75 4
69 0 0
69 11 2
69 70 0
69 72 0
69 92 3
70 16 1
70 19 0
70 20 0
70 30 2
70 33 2
70 34 1
70 44 0
70 47 1
70 48 4
70 61 1
70 68 0
70 78 1
70 81 4
70 85 4
70 91 2
70 95 1
70 96 0
71 25 0
71 36 3
71 41 0
71 61 0
71 62 3
71 81 0
71 94 3
72 2 3
72 30 1
72 60 4
72 65 1
72 67 1
72 76 4
72 83 1
72 84 3
72 89 0
72 94 4
72 98 1
73 2 0
73 21 2
73 24 4
73 30 0
73 38 3
73 52 3
73 56 1
73 65 4
73 88 0
74 12 0
74 41 4
74 42 1
74 44 2
74 48 3
74 59 2
74 65 2
74 69 0
74 72 1
74 73 0
74 99 0
75 14 1
75 32 2
75 41 2
75 48 4
75 65 2
75 82 3
76 20 3
76 24 1
76 31 0
76 39 1
76 58 2
76 72 0
77 1 1
77 10 1
77 14 0
77 18 3
77 47 1
77 62 3
78 19 0
78 28 4
78 40 0
78 68 0
78 70 4
78 78 3
79 17 1
79 20 1
79 27 2
79 32 3
79 44 2
79 49 1
79 59 2
79 66 2
79 76 3
79 90 0
80 20 3
80 39 3
80 49 4
80 65 0
80 82 1
80 97 0
81 0 4
81 1 4
81 2 0
81 17 1
81 74 0
81 75 3
81 79 3
81 84 3
81 85 0
81 89 3
82 23 0
82 25 4
82 36 4
82 45 4
82 47 0
82 60 1
82 80 3
82 83 3
82 85 0
82 87 4
82 93 0
82 97 0
83 4 0
83 6 4
83 11 1
83 18 3
83 43 2
83 46 1
83 66 2
83 70 3
83 74 3
83 77 2
83 80 1
83 96 2
84 7 2
84 26 2
84 32 2
84 35 1
84 41 2
84 44 1
84 63 4
84 87 0
85 6 4
85 12 4
85 17 3
85 19 0
85 29 4
85 32 3
85 57 0
85 64 4
86 35 4
86 40 0
86 52 4
86 54 4
86 67 3
86 86 4
86 87 1
87 6 4
87 14 3
87 25 2
87 35 3
87 39 4
87 42 0
87 43 4
87 46 3
87 49 1
87 50 2
87 53 2
87 58 2
87 76 0
87 78 3
88 7 3
88 16 3
88 40 3
88 47 2
88 49 3
88 51 3
88 58 4
88 67 4
88 68 2
88 69 1
88 72 3
88 87 0
89 4 4
89 11 4
89 27 3
89 33 0
89 34 0
89 44 3
89 46 2
89 50 0
89 53 1
89 73 2
89 86 1
89 88 4
89 92 3
89 97 1
90 15 2
90 50 0
90 57 1
90 68 1
90 69 1
90 90 1
91 12 1
91 27 4
91 40 4
91 43 1
91 44 4
91 64 3
91 74 4
91 78 2
91 79 2
91 83 1
91 96 2
91 99 1
92 8 0
92 15 4
92 16 4
92 31 2
92 35 0
92 38 4
92 43 3
92 50 4
92 53 0
92 58 1
92 59 2
92 62 4
92 63 4
92 65 4
92 73 1
92 91 1
93 15 1
93 36 1
93 49 4
93 57 3
93 58 1
93 60 1
93 61 2
93 63 3
93 84 3
93 86 4
93 89 4
94 5 3
94 15 2
94 24 0
94 48 0
94 51 1
94 68 0
94 73 2
94 77 3
94 79 2
94 83 4
95 1 0
95 28 3
95 37 3
95 47 4
95 49 2
95 55 2
95 56 0
95 60 2
96 0 2
96 5 2
96 20 4
96 25 2
96 36 0
96 42 0
96 76 4
96 97 4
97 14 4
97 15 4
97 37 3
97 43 1
97 93 2
98 3 2
98 7 2
98 8 0
98 16 2
98 27 0
98 33 3
98 54 4
98 57 2
98 70 3
98 71 2
98 92 0
98 94 4
99 10 0
99 25 0
99 38 1
99 42 4
99 56 1
99 64 1
99 80 4
99 90 2
